Eu8 Ti8 O24
1.0
   7.9254563232000006    0.0000000000000000    0.0000000000000000
   0.0000000000000000    7.8309180767999989    0.0000000000000000
   0.0000000000000000    0.0000000000000000    7.7840255999999997
Eu Ti O
8 8 24
direct
   0.0000000000000000    0.0000000000000000    0.0000000000000000 Eu
   0.5000000000000000    0.0000000000000000    0.0000000000000000 Eu
   0.0000000000000000    0.5000000000000000    0.0000000000000000 Eu
   0.5000000000000000    0.5000000000000000    0.0000000000000000 Eu
   0.0000000000000000    0.0000000000000000    0.5000000000000000 Eu
   0.5000000000000000    0.0000000000000000    0.5000000000000000 Eu
   0.0000000000000000    0.5000000000000000    0.5000000000000000 Eu
   0.5000000000000000    0.5000000000000000    0.5000000000000000 Eu
   0.2500000000000000    0.2500000000000000    0.2500000000000000 Ti
   0.7500000000000000    0.2500000000000000    0.2500000000000000 Ti
   0.2500000000000000    0.7500000000000000    0.2500000000000000 Ti
   0.7500000000000000    0.7500000000000000    0.2500000000000000 Ti
   0.2500000000000000    0.2500000000000000    0.7500000000000000 Ti
   0.7500000000000000    0.2500000000000000    0.7500000000000000 Ti
   0.2500000000000000    0.7500000000000000    0.7500000000000000 Ti
   0.7500000000000000    0.7500000000000000    0.7500000000000000 Ti
   0.2500000000000000    0.2500000000000000    0.0000000000000000 O
   0.2500000000000000    0.7500000000000000    0.0000000000000000 O
   0.7500000000000000    0.2500000000000000    0.0000000000000000 O
   0.7500000000000000    0.7500000000000000    0.0000000000000000 O
   0.2500000000000000    0.2500000000000000    0.5000000000000000 O
   0.2500000000000000    0.7500000000000000    0.5000000000000000 O
   0.7500000000000000    0.2500000000000000    0.5000000000000000 O
   0.7500000000000000    0.7500000000000000    0.5000000000000000 O
   0.0000000000000000    0.2198551656971737    0.2500000000000000 O
   0.0000000000000000    0.2801448343028263    0.7500000000000000 O
   0.0000000000000000    0.7801448343028263    0.2500000000000000 O
   0.0000000000000000    0.7198551656971737    0.7500000000000000 O
   0.2801448343028263    0.0000000000000000    0.2500000000000000 O
   0.2198551656971737    0.0000000000000000    0.7500000000000000 O
   0.2198551656971737    0.5000000000000000    0.2500000000000000 O
   0.2801448343028263    0.5000000000000000    0.7500000000000000 O
   0.5000000000000000    0.2801448343028263    0.2500000000000000 O
   0.5000000000000000    0.2198551656971737    0.7500000000000000 O
   0.5000000000000000    0.7198551656971737    0.2500000000000000 O
   0.5000000000000000    0.7801448343028263    0.7500000000000000 O
   0.7198551656971737    0.0000000000000000    0.2500000000000000 O
   0.7801448343028263    0.0000000000000000    0.7500000000000000 O
   0.7801448343028263    0.5000000000000000    0.2500000000000000 O
   0.7198551656971737    0.5000000000000000    0.7500000000000000 O
