Eu8 Ti8 O24
1.0
   7.9016497560000003    0.0000000000000000    0.0000000000000000
   0.0000000000000000    7.8701062439999987    0.0000000000000000
   0.0000000000000000    0.0000000000000000    7.8622440000000005
Eu Ti O
8 8 24
direct
   0.0000000000000000    0.0000000000000000    0.0000000000000000 Eu
   0.5000000000000000    0.0000000000000000    0.0000000000000000 Eu
   0.0000000000000000    0.5000000000000000    0.0000000000000000 Eu
   0.5000000000000000    0.5000000000000000    0.0000000000000000 Eu
   0.0000000000000000    0.0000000000000000    0.5000000000000000 Eu
   0.5000000000000000    0.0000000000000000    0.5000000000000000 Eu
   0.0000000000000000    0.5000000000000000    0.5000000000000000 Eu
   0.5000000000000000    0.5000000000000000    0.5000000000000000 Eu
   0.2500000000000000    0.2500000000000000    0.2500000000000000 Ti
   0.7500000000000000    0.2500000000000000    0.2500000000000000 Ti
   0.2500000000000000    0.7500000000000000    0.2500000000000000 Ti
   0.7500000000000000    0.7500000000000000    0.2500000000000000 Ti
   0.2500000000000000    0.2500000000000000    0.7500000000000000 Ti
   0.7500000000000000    0.2500000000000000    0.7500000000000000 Ti
   0.2500000000000000    0.7500000000000000    0.7500000000000000 Ti
   0.7500000000000000    0.7500000000000000    0.7500000000000000 Ti
   0.2500000000000000    0.2500000000000000    0.0000000000000000 O
   0.2500000000000000    0.7500000000000000    0.0000000000000000 O
   0.7500000000000000    0.2500000000000000    0.0000000000000000 O
   0.7500000000000000    0.7500000000000000    0.0000000000000000 O
   0.2500000000000000    0.2500000000000000    0.5000000000000000 O
   0.2500000000000000    0.7500000000000000    0.5000000000000000 O
   0.7500000000000000    0.2500000000000000    0.5000000000000000 O
   0.7500000000000000    0.7500000000000000    0.5000000000000000 O
   0.0000000000000000    0.2424977491897048    0.2500000000000000 O
   0.0000000000000000    0.2575022508102952    0.7500000000000000 O
   0.0000000000000000    0.7575022508102952    0.2500000000000000 O
   0.0000000000000000    0.7424977491897048    0.7500000000000000 O
   0.2575022508102952    0.0000000000000000    0.2500000000000000 O
   0.2424977491897048    0.0000000000000000    0.7500000000000000 O
   0.2424977491897048    0.5000000000000000    0.2500000000000000 O
   0.2575022508102952    0.5000000000000000    0.7500000000000000 O
   0.5000000000000000    0.2575022508102952    0.2500000000000000 O
   0.5000000000000000    0.2424977491897048    0.7500000000000000 O
   0.5000000000000000    0.7424977491897048    0.2500000000000000 O
   0.5000000000000000    0.7575022508102952    0.7500000000000000 O
   0.7424977491897048    0.0000000000000000    0.2500000000000000 O
   0.7575022508102952    0.0000000000000000    0.7500000000000000 O
   0.7575022508102952    0.5000000000000000    0.2500000000000000 O
   0.7424977491897048    0.5000000000000000    0.7500000000000000 O
