Eu8 Ti8 O24
1.0
   7.8860967119999987    0.0000000000000000    0.0000000000000000
   0.0000000000000000    7.8232592880000000    0.0000000000000000
   0.0000000000000000    0.0000000000000000    7.7374440000000000
Eu Ti O
8 8 24
direct
   0.0000000000000000    0.0000000000000000    0.0000000000000000 Eu
   0.5000000000000000    0.0000000000000000    0.0000000000000000 Eu
   0.0000000000000000    0.5000000000000000    0.0000000000000000 Eu
   0.5000000000000000    0.5000000000000000    0.0000000000000000 Eu
   0.0000000000000000    0.0000000000000000    0.5000000000000000 Eu
   0.5000000000000000    0.0000000000000000    0.5000000000000000 Eu
   0.0000000000000000    0.5000000000000000    0.5000000000000000 Eu
   0.5000000000000000    0.5000000000000000    0.5000000000000000 Eu
   0.2500000000000000    0.2500000000000000    0.2500000000000000 Ti
   0.7500000000000000    0.2500000000000000    0.2500000000000000 Ti
   0.2500000000000000    0.7500000000000000    0.2500000000000000 Ti
   0.7500000000000000    0.7500000000000000    0.2500000000000000 Ti
   0.2500000000000000    0.2500000000000000    0.7500000000000000 Ti
   0.7500000000000000    0.2500000000000000    0.7500000000000000 Ti
   0.2500000000000000    0.7500000000000000    0.7500000000000000 Ti
   0.7500000000000000    0.7500000000000000    0.7500000000000000 Ti
   0.2500000000000000    0.2500000000000000    0.0000000000000000 O
   0.2500000000000000    0.7500000000000000    0.0000000000000000 O
   0.7500000000000000    0.2500000000000000    0.0000000000000000 O
   0.7500000000000000    0.7500000000000000    0.0000000000000000 O
   0.2500000000000000    0.2500000000000000    0.5000000000000000 O
   0.2500000000000000    0.7500000000000000    0.5000000000000000 O
   0.7500000000000000    0.2500000000000000    0.5000000000000000 O
   0.7500000000000000    0.7500000000000000    0.5000000000000000 O
   0.0000000000000000    0.2349819740421757    0.2500000000000000 O
   0.0000000000000000    0.2650180259578243    0.7500000000000000 O
   0.0000000000000000    0.7650180259578243    0.2500000000000000 O
   0.0000000000000000    0.7349819740421757    0.7500000000000000 O
   0.2650180259578243    0.0000000000000000    0.2500000000000000 O
   0.2349819740421757    0.0000000000000000    0.7500000000000000 O
   0.2349819740421757    0.5000000000000000    0.2500000000000000 O
   0.2650180259578243    0.5000000000000000    0.7500000000000000 O
   0.5000000000000000    0.2650180259578243    0.2500000000000000 O
   0.5000000000000000    0.2349819740421757    0.7500000000000000 O
   0.5000000000000000    0.7349819740421757    0.2500000000000000 O
   0.5000000000000000    0.7650180259578243    0.7500000000000000 O
   0.7349819740421757    0.0000000000000000    0.2500000000000000 O
   0.7650180259578243    0.0000000000000000    0.7500000000000000 O
   0.7650180259578243    0.5000000000000000    0.2500000000000000 O
   0.7349819740421757    0.5000000000000000    0.7500000000000000 O
