Eu8 Ti8 O24
1.0
   7.8546779999999998    0.0000000000000000    0.0000000000000000
   0.0000000000000000    7.8233219999999983    0.0000000000000000
   0.0000000000000000    0.0000000000000000    7.7219999999999995
Eu Ti O
8 8 24
direct
   0.0000000000000000    0.0000000000000000    0.0000000000000000 Eu
   0.5000000000000000    0.0000000000000000    0.0000000000000000 Eu
   0.0000000000000000    0.5000000000000000    0.0000000000000000 Eu
   0.5000000000000000    0.5000000000000000    0.0000000000000000 Eu
   0.0000000000000000    0.0000000000000000    0.5000000000000000 Eu
   0.5000000000000000    0.0000000000000000    0.5000000000000000 Eu
   0.0000000000000000    0.5000000000000000    0.5000000000000000 Eu
   0.5000000000000000    0.5000000000000000    0.5000000000000000 Eu
   0.2500000000000000    0.2500000000000000    0.2500000000000000 Ti
   0.7500000000000000    0.2500000000000000    0.2500000000000000 Ti
   0.2500000000000000    0.7500000000000000    0.2500000000000000 Ti
   0.7500000000000000    0.7500000000000000    0.2500000000000000 Ti
   0.2500000000000000    0.2500000000000000    0.7500000000000000 Ti
   0.7500000000000000    0.2500000000000000    0.7500000000000000 Ti
   0.2500000000000000    0.7500000000000000    0.7500000000000000 Ti
   0.7500000000000000    0.7500000000000000    0.7500000000000000 Ti
   0.2500000000000000    0.2500000000000000    0.0000000000000000 O
   0.2500000000000000    0.7500000000000000    0.0000000000000000 O
   0.7500000000000000    0.2500000000000000    0.0000000000000000 O
   0.7500000000000000    0.7500000000000000    0.0000000000000000 O
   0.2500000000000000    0.2500000000000000    0.5000000000000000 O
   0.2500000000000000    0.7500000000000000    0.5000000000000000 O
   0.7500000000000000    0.2500000000000000    0.5000000000000000 O
   0.7500000000000000    0.7500000000000000    0.5000000000000000 O
   0.0000000000000000    0.2349819740421757    0.2500000000000000 O
   0.0000000000000000    0.2650180259578243    0.7500000000000000 O
   0.0000000000000000    0.7650180259578243    0.2500000000000000 O
   0.0000000000000000    0.7349819740421757    0.7500000000000000 O
   0.2650180259578243    0.0000000000000000    0.2500000000000000 O
   0.2349819740421757    0.0000000000000000    0.7500000000000000 O
   0.2349819740421757    0.5000000000000000    0.2500000000000000 O
   0.2650180259578243    0.5000000000000000    0.7500000000000000 O
   0.5000000000000000    0.2650180259578243    0.2500000000000000 O
   0.5000000000000000    0.2349819740421757    0.7500000000000000 O
   0.5000000000000000    0.7349819740421757    0.2500000000000000 O
   0.5000000000000000    0.7650180259578243    0.7500000000000000 O
   0.7349819740421757    0.0000000000000000    0.2500000000000000 O
   0.7650180259578243    0.0000000000000000    0.7500000000000000 O
   0.7650180259578243    0.5000000000000000    0.2500000000000000 O
   0.7349819740421757    0.5000000000000000    0.7500000000000000 O
