Eu8 Ti8 O24
1.0
   7.8939435743999988    0.0000000000000000    0.0000000000000000
   0.0000000000000000    7.7997812255999994    0.0000000000000000
   0.0000000000000000    0.0000000000000000    7.7530751999999996
Eu Ti O
8 8 24
direct
   0.0000000000000000    0.0000000000000000    0.0000000000000000 Eu
   0.5000000000000000    0.0000000000000000    0.0000000000000000 Eu
   0.0000000000000000    0.5000000000000000    0.0000000000000000 Eu
   0.5000000000000000    0.5000000000000000    0.0000000000000000 Eu
   0.0000000000000000    0.0000000000000000    0.5000000000000000 Eu
   0.5000000000000000    0.0000000000000000    0.5000000000000000 Eu
   0.0000000000000000    0.5000000000000000    0.5000000000000000 Eu
   0.5000000000000000    0.5000000000000000    0.5000000000000000 Eu
   0.2500000000000000    0.2500000000000000    0.2500000000000000 Ti
   0.7500000000000000    0.2500000000000000    0.2500000000000000 Ti
   0.2500000000000000    0.7500000000000000    0.2500000000000000 Ti
   0.7500000000000000    0.7500000000000000    0.2500000000000000 Ti
   0.2500000000000000    0.2500000000000000    0.7500000000000000 Ti
   0.7500000000000000    0.2500000000000000    0.7500000000000000 Ti
   0.2500000000000000    0.7500000000000000    0.7500000000000000 Ti
   0.7500000000000000    0.7500000000000000    0.7500000000000000 Ti
   0.2500000000000000    0.2500000000000000    0.0000000000000000 O
   0.2500000000000000    0.7500000000000000    0.0000000000000000 O
   0.7500000000000000    0.2500000000000000    0.0000000000000000 O
   0.7500000000000000    0.7500000000000000    0.0000000000000000 O
   0.2500000000000000    0.2500000000000000    0.5000000000000000 O
   0.2500000000000000    0.7500000000000000    0.5000000000000000 O
   0.7500000000000000    0.2500000000000000    0.5000000000000000 O
   0.7500000000000000    0.7500000000000000    0.5000000000000000 O
   0.0000000000000000    0.2500000000000000    0.2500000000000000 O
   0.0000000000000000    0.2500000000000000    0.7500000000000000 O
   0.0000000000000000    0.7500000000000000    0.2500000000000000 O
   0.0000000000000000    0.7500000000000000    0.7500000000000000 O
   0.2500000000000000    0.0000000000000000    0.2500000000000000 O
   0.2500000000000000    0.0000000000000000    0.7500000000000000 O
   0.2500000000000000    0.5000000000000000    0.2500000000000000 O
   0.2500000000000000    0.5000000000000000    0.7500000000000000 O
   0.5000000000000000    0.2500000000000000    0.2500000000000000 O
   0.5000000000000000    0.2500000000000000    0.7500000000000000 O
   0.5000000000000000    0.7500000000000000    0.2500000000000000 O
   0.5000000000000000    0.7500000000000000    0.7500000000000000 O
   0.7500000000000000    0.0000000000000000    0.2500000000000000 O
   0.7500000000000000    0.0000000000000000    0.7500000000000000 O
   0.7500000000000000    0.5000000000000000    0.2500000000000000 O
   0.7500000000000000    0.5000000000000000    0.7500000000000000 O
