Eu8 Ti8 O24
1.0
   7.9333031232000017    0.0000000000000000    0.0000000000000000
   0.0000000000000000    7.8073776768000016    0.0000000000000000
   0.0000000000000000    0.0000000000000000    7.7997191999999993
Eu Ti O
8 8 24
direct
   0.0000000000000000    0.0000000000000000    0.0000000000000000 Eu
   0.5000000000000000    0.0000000000000000    0.0000000000000000 Eu
   0.0000000000000000    0.5000000000000000    0.0000000000000000 Eu
   0.5000000000000000    0.5000000000000000    0.0000000000000000 Eu
   0.0000000000000000    0.0000000000000000    0.5000000000000000 Eu
   0.5000000000000000    0.0000000000000000    0.5000000000000000 Eu
   0.0000000000000000    0.5000000000000000    0.5000000000000000 Eu
   0.5000000000000000    0.5000000000000000    0.5000000000000000 Eu
   0.2500000000000000    0.2500000000000000    0.2500000000000000 Ti
   0.7500000000000000    0.2500000000000000    0.2500000000000000 Ti
   0.2500000000000000    0.7500000000000000    0.2500000000000000 Ti
   0.7500000000000000    0.7500000000000000    0.2500000000000000 Ti
   0.2500000000000000    0.2500000000000000    0.7500000000000000 Ti
   0.7500000000000000    0.2500000000000000    0.7500000000000000 Ti
   0.2500000000000000    0.7500000000000000    0.7500000000000000 Ti
   0.7500000000000000    0.7500000000000000    0.7500000000000000 Ti
   0.2500000000000000    0.2500000000000000    0.0000000000000000 O
   0.2500000000000000    0.7500000000000000    0.0000000000000000 O
   0.7500000000000000    0.2500000000000000    0.0000000000000000 O
   0.7500000000000000    0.7500000000000000    0.0000000000000000 O
   0.2500000000000000    0.2500000000000000    0.5000000000000000 O
   0.2500000000000000    0.7500000000000000    0.5000000000000000 O
   0.7500000000000000    0.2500000000000000    0.5000000000000000 O
   0.7500000000000000    0.7500000000000000    0.5000000000000000 O
   0.0000000000000000    0.2122161954854262    0.2500000000000000 O
   0.0000000000000000    0.2877838045145737    0.7500000000000000 O
   0.0000000000000000    0.7877838045145737    0.2500000000000000 O
   0.0000000000000000    0.7122161954854263    0.7500000000000000 O
   0.2877838045145737    0.0000000000000000    0.2500000000000000 O
   0.2122161954854262    0.0000000000000000    0.7500000000000000 O
   0.2122161954854262    0.5000000000000000    0.2500000000000000 O
   0.2877838045145737    0.5000000000000000    0.7500000000000000 O
   0.5000000000000000    0.2877838045145737    0.2500000000000000 O
   0.5000000000000000    0.2122161954854262    0.7500000000000000 O
   0.5000000000000000    0.7122161954854263    0.2500000000000000 O
   0.5000000000000000    0.7877838045145737    0.7500000000000000 O
   0.7122161954854263    0.0000000000000000    0.2500000000000000 O
   0.7877838045145737    0.0000000000000000    0.7500000000000000 O
   0.7877838045145737    0.5000000000000000    0.2500000000000000 O
   0.7122161954854263    0.5000000000000000    0.7500000000000000 O
