Eu8 Ti8 O24
1.0
   7.8860653871999977    0.0000000000000000    0.0000000000000000
   0.0000000000000000    7.7919970127999987    0.0000000000000000
   0.0000000000000000    0.0000000000000000    7.8155375999999999
Eu Ti O
8 8 24
direct
   0.0000000000000000    0.0000000000000000    0.0000000000000000 Eu
   0.5000000000000000    0.0000000000000000    0.0000000000000000 Eu
   0.0000000000000000    0.5000000000000000    0.0000000000000000 Eu
   0.5000000000000000    0.5000000000000000    0.0000000000000000 Eu
   0.0000000000000000    0.0000000000000000    0.5000000000000000 Eu
   0.5000000000000000    0.0000000000000000    0.5000000000000000 Eu
   0.0000000000000000    0.5000000000000000    0.5000000000000000 Eu
   0.5000000000000000    0.5000000000000000    0.5000000000000000 Eu
   0.2500000000000000    0.2500000000000000    0.2500000000000000 Ti
   0.7500000000000000    0.2500000000000000    0.2500000000000000 Ti
   0.2500000000000000    0.7500000000000000    0.2500000000000000 Ti
   0.7500000000000000    0.7500000000000000    0.2500000000000000 Ti
   0.2500000000000000    0.2500000000000000    0.7500000000000000 Ti
   0.7500000000000000    0.2500000000000000    0.7500000000000000 Ti
   0.2500000000000000    0.7500000000000000    0.7500000000000000 Ti
   0.7500000000000000    0.7500000000000000    0.7500000000000000 Ti
   0.2500000000000000    0.2500000000000000    0.0000000000000000 O
   0.2500000000000000    0.7500000000000000    0.0000000000000000 O
   0.7500000000000000    0.2500000000000000    0.0000000000000000 O
   0.7500000000000000    0.7500000000000000    0.0000000000000000 O
   0.2500000000000000    0.2500000000000000    0.5000000000000000 O
   0.2500000000000000    0.7500000000000000    0.5000000000000000 O
   0.7500000000000000    0.2500000000000000    0.5000000000000000 O
   0.7500000000000000    0.7500000000000000    0.5000000000000000 O
   0.0000000000000000    0.2274390525225536    0.2500000000000000 O
   0.0000000000000000    0.2725609474774464    0.7500000000000000 O
   0.0000000000000000    0.7725609474774464    0.2500000000000000 O
   0.0000000000000000    0.7274390525225536    0.7500000000000000 O
   0.2725609474774464    0.0000000000000000    0.2500000000000000 O
   0.2274390525225536    0.0000000000000000    0.7500000000000000 O
   0.2274390525225536    0.5000000000000000    0.2500000000000000 O
   0.2725609474774464    0.5000000000000000    0.7500000000000000 O
   0.5000000000000000    0.2725609474774464    0.2500000000000000 O
   0.5000000000000000    0.2274390525225536    0.7500000000000000 O
   0.5000000000000000    0.7274390525225536    0.2500000000000000 O
   0.5000000000000000    0.7725609474774464    0.7500000000000000 O
   0.7274390525225536    0.0000000000000000    0.2500000000000000 O
   0.7725609474774464    0.0000000000000000    0.7500000000000000 O
   0.7725609474774464    0.5000000000000000    0.2500000000000000 O
   0.7274390525225536    0.5000000000000000    0.7500000000000000 O
