Eu8 Ti8 O24
1.0
   7.7999999999999998    0.0000000000000000    0.0000000000000000
   0.0000000000000000    7.7999999999999998    0.0000000000000000
   0.0000000000000000    0.0000000000000000    7.7999999999999998
Eu Ti O
8 8 24
direct
   0.0000000000000000    0.0000000000000000    0.0000000000000000 
   0.5000000000000000    0.0000000000000000    0.0000000000000000 
   0.0000000000000000    0.5000000000000000    0.0000000000000000 
   0.5000000000000000    0.5000000000000000    0.0000000000000000 
   0.0000000000000000    0.0000000000000000    0.5000000000000000 
   0.5000000000000000    0.0000000000000000    0.5000000000000000 
   0.0000000000000000    0.5000000000000000    0.5000000000000000 
   0.5000000000000000    0.5000000000000000    0.5000000000000000 
   0.2500000000000000    0.2500000000000000    0.2500000000000000 
   0.7500000000000000    0.2500000000000000    0.2500000000000000 
   0.2500000000000000    0.7500000000000000    0.2500000000000000 
   0.7500000000000000    0.7500000000000000    0.2500000000000000 
   0.2500000000000000    0.2500000000000000    0.7500000000000000 
   0.7500000000000000    0.2500000000000000    0.7500000000000000 
   0.2500000000000000    0.7500000000000000    0.7500000000000000 
   0.7500000000000000    0.7500000000000000    0.7500000000000000 
   0.2500000000000000    0.2500000000000000    0.0000000000000000 
   0.2500000000000000    0.7500000000000000    0.0000000000000000 
   0.7500000000000000    0.2500000000000000    0.0000000000000000 
   0.7500000000000000    0.7500000000000000    0.0000000000000000 
   0.2500000000000000    0.2500000000000000    0.5000000000000000 
   0.2500000000000000    0.7500000000000000    0.5000000000000000 
   0.7500000000000000    0.2500000000000000    0.5000000000000000 
   0.7500000000000000    0.7500000000000000    0.5000000000000000 
   0.0000000000000000    0.2198551656971737    0.2500000000000000 
   0.0000000000000000    0.2801448343028263    0.7500000000000000 
   0.0000000000000000    0.7801448343028263    0.2500000000000000 
   0.0000000000000000    0.7198551656971737    0.7500000000000000 
   0.2801448343028263    0.0000000000000000    0.2500000000000000 
   0.2198551656971737    0.0000000000000000    0.7500000000000000 
   0.2198551656971737    0.5000000000000000    0.2500000000000000 
   0.2801448343028263    0.5000000000000000    0.7500000000000000 
   0.5000000000000000    0.2801448343028263    0.2500000000000000 
   0.5000000000000000    0.2198551656971737    0.7500000000000000 
   0.5000000000000000    0.7198551656971737    0.2500000000000000 
   0.5000000000000000    0.7801448343028263    0.7500000000000000 
   0.7198551656971737    0.0000000000000000    0.2500000000000000 
   0.7801448343028263    0.0000000000000000    0.7500000000000000 
   0.7801448343028263    0.5000000000000000    0.2500000000000000 
   0.7198551656971737    0.5000000000000000    0.7500000000000000 

